NAME: ACTUAL_TOURS/amz0760
TYPE: TOUR
COMMENT: RouteID_513de56f-7ed8-4e21-baff-4f1b9715129a
DIMENSION: 121
TOUR_SECTION
38
46
36
117
51
24
47
29
19
96
42
45
18
101
2
27
53
89
14
112
109
77
44
76
48
15
98
93
35
16
106
3
55
13
43
67
26
30
64
84
31
52
95
65
60
49
104
87
61
70
39
62
68
8
78
58
12
82
119
28
17
91
5
10
56
33
63
81
40
9
80
1
25
115
57
111
6
113
50
20
100
121
59
34
54
4
108
22
107
118
41
97
71
69
102
66
92
116
75
85
105
83
99
90
103
88
32
23
79
72
7
114
73
37
110
74
21
86
94
120
11
-1
EOF
